(declare-fun e () String)
(declare-fun c () String)
(declare-fun g () String)
(declare-fun d () String)
(declare-fun f () String)
(declare-fun a () String)
(declare-fun h () String)
(assert (= (str.++ a f "f") g))
(assert (= h (str.++ d d e)))
(assert (= (str.++ f "g" e "f" h a) (str.++ c "aa" g "a")))

(check-sat)
